NAME: instance_2326
TYPE: TSP
DIMENSION: 20
EDGE_WEIGHT_TYPE: EUC_2D
NODE_COORD_SECTION
0 5.55 84.70
1 78.79 70.56
2 14.53 21.61
3 79.00 48.32
4 20.53 95.18
5 54.29 11.42
6 29.16 62.19
7 28.25 73.83
8 20.24 45.28
9 94.25 83.76
10 31.21 83.54
11 37.02 20.87
12 7.99 20.70
13 92.96 7.88
14 19.38 69.58
15 7.70 22.42
16 42.38 62.25
17 24.15 65.90
18 82.26 15.34
19 48.17 37.83
EOF
